c H(domain3) LEQ(domain3,domain3) T(domain3) LEQ(domain3,domain1) H(domain1) T(domain1) LEQ(domain1,domain3) T(domain0) LEQ(domain3,domain0) LEQ(domain0,domain3) H(domain0) LEQ(domain2,domain3) LEQ(domain3,domain2) H(domain2) T(domain2) LEQ(domain4,domain3) T(domain4) LEQ(domain3,domain4) H(domain4) LEQ(domain1,domain1) LEQ(domain1,domain0) LEQ(domain0,domain1) LEQ(domain2,domain1) LEQ(domain1,domain2) LEQ(domain4,domain1) LEQ(domain1,domain4) LEQ(domain0,domain0) LEQ(domain0,domain2) LEQ(domain2,domain0) LEQ(domain0,domain4) LEQ(domain4,domain0) LEQ(domain2,domain2) LEQ(domain2,domain4) LEQ(domain4,domain2) LEQ(domain4,domain4)
c 1 2 3 4 5 6 7 8 9 10 11 12 13 14 15 16 17 18 19 20 21 22 23 24 25 26 27 28 29 30 31 32 33 34 35
p cnf 35 55
-11 -8 0
-5 -6 0
-14 -15 0
-1 -3 0
-19 -17 0
11 -11 -27 0
11 -5 -22 0
11 -14 -28 0
11 -1 -10 0
11 -19 -30 0
5 -11 -21 0
5 -5 -20 0
5 -14 -24 0
5 -1 -7 0
5 -19 -26 0
14 -11 -29 0
14 -5 -23 0
14 -14 -32 0
14 -1 -12 0
14 -19 -33 0
1 -11 -9 0
1 -5 -4 0
1 -14 -13 0
1 -1 -2 0
1 -19 -18 0
19 -11 -31 0
19 -5 -25 0
19 -14 -34 0
19 -1 -16 0
19 -19 -35 0
8 -27 -8 0
8 -21 -6 0
8 -29 -15 0
8 -9 -3 0
8 -31 -17 0
6 -22 -8 0
6 -20 -6 0
6 -23 -15 0
6 -4 -3 0
6 -25 -17 0
15 -28 -8 0
15 -24 -6 0
15 -32 -15 0
15 -13 -3 0
15 -34 -17 0
3 -10 -8 0
3 -7 -6 0
3 -12 -15 0
3 -2 -3 0
3 -16 -17 0
17 -30 -8 0
17 -26 -6 0
17 -33 -15 0
17 -18 -3 0
17 -35 -17 0
